Step 2/6S/22 14 21 29 33 39/Cluster 4/VRPwTW.sol
Total_Cost = 2328.27

X :=
Kazan_ASHANp            Kazan_ASHANy            1   1
Kazan_ASHANy            NNovgorod_METROn        1   1
Kazan_Zelgros           Kazan_ASHANp            1   1
MoscowDepot             NaberezhnyeChelny_LENTA 1   1
NNovgorod_METROn        NNovgorod_Okey          1   1
NNovgorod_Okey          MoscowDepot             1   1
NaberezhnyeChelny_LENTA Kazan_Zelgros           1   1
;

Served :=
Kazan_ASHANp            2   1
Kazan_ASHANy            2   1
Kazan_Zelgros           2   1
NNovgorod_METROn        3   1
NNovgorod_Okey          3   1
NaberezhnyeChelny_LENTA 2   1
;

ATime :=
Kazan_ASHANp            1   43.27
Kazan_ASHANy            1   43.8
Kazan_Zelgros           1   42.94
MoscowDepot             1   61.86
NNovgorod_METROn        1   49.31
NNovgorod_Okey          1   56
NaberezhnyeChelny_LENTA 1   39.71
;

DTime :=
Kazan_ASHANp            1   43.47
Kazan_ASHANy            1   44
Kazan_Zelgros           1   43.14
MoscowDepot             1   26.01
NNovgorod_METROn        1   55.68
NNovgorod_Okey          1   56.2
NaberezhnyeChelny_LENTA 1   39.91
;

RouteDuration [*] :=
1  28.48
;

WTime :=
Kazan_ASHANp            1   0
Kazan_ASHANy            1   0
Kazan_Zelgros           1   0
MoscowDepot             1   0
NNovgorod_METROn        1   6.17
NNovgorod_Okey          1   0
NaberezhnyeChelny_LENTA 1   0
;
